es_decr_min = int_search([es[2],es[1],es[10],es[11],es[5],es[18],es[3],es[20],es[17],es[15],es[4],es[7],es[8],es[19],es[13],es[12],es[16],es[6],es[14],es[9],vs[10],vs[7],vs[11],vs[17],vs[3],vs[2],vs[8],vs[15],vs[5],vs[1],vs[14],vs[18],vs[4],vs[12],vs[9],vs[16],vs[13],vs[6]], input_order, indomain_min, complete);
nbV = 18;
nbE = 20;
nbT = 10;
adj = [|false,false,false,false,false,false,false,false,false,false,false,false,false,false,false,false,false,true,true,false
|false,false,true,false,false,false,false,false,false,false,false,false,false,false,false,false,false,false,false,false
|false,false,false,true,true,false,false,false,false,false,false,false,false,false,false,false,false,false,false,false
|false,false,false,false,false,false,false,true,false,false,false,false,false,false,false,false,false,false,false,false
|false,false,false,false,false,false,false,false,false,false,true,true,true,false,false,false,false,false,false,false
|false,false,false,false,false,false,false,false,true,false,false,false,false,false,false,false,false,false,false,false
|true,false,false,false,false,false,false,false,false,false,false,false,false,false,false,false,false,false,false,false
|false,false,false,false,false,false,false,false,false,false,false,false,false,false,false,false,false,false,false,true
|false,false,false,false,false,false,false,false,false,false,false,false,false,false,true,true,false,false,false,false
|true,true,false,false,false,false,false,false,false,false,false,false,false,false,false,false,false,false,false,false
|false,true,true,false,true,false,false,false,false,false,false,false,false,false,false,false,false,false,false,false
|false,false,false,true,false,true,true,false,false,false,false,false,false,false,false,false,false,false,false,false
|false,false,false,false,false,true,false,true,false,false,false,false,false,false,false,true,false,false,false,false
|false,false,false,false,false,false,false,false,true,true,false,false,true,false,false,false,false,false,false,false
|false,false,false,false,false,false,true,false,false,false,true,false,false,true,false,false,false,false,false,false
|false,false,false,false,false,false,false,false,false,false,false,false,false,true,true,false,false,false,true,false
|false,false,false,false,false,false,false,false,false,true,false,false,false,false,false,false,true,false,false,true
|false,false,false,false,false,false,false,false,false,false,false,true,false,false,false,false,true,true,false,false
|];
endnodes = [|false,false,false,false,false,false,true,false,false,true,false,false,false,false,false,false,false,false
|false,false,false,false,false,false,false,false,false,true,true,false,false,false,false,false,false,false
|false,true,false,false,false,false,false,false,false,false,true,false,false,false,false,false,false,false
|false,false,true,false,false,false,false,false,false,false,false,true,false,false,false,false,false,false
|false,false,true,false,false,false,false,false,false,false,true,false,false,false,false,false,false,false
|false,false,false,false,false,false,false,false,false,false,false,true,true,false,false,false,false,false
|false,false,false,false,false,false,false,false,false,false,false,true,false,false,true,false,false,false
|false,false,false,true,false,false,false,false,false,false,false,false,true,false,false,false,false,false
|false,false,false,false,false,true,false,false,false,false,false,false,false,true,false,false,false,false
|false,false,false,false,false,false,false,false,false,false,false,false,false,true,false,false,true,false
|false,false,false,false,true,false,false,false,false,false,false,false,false,false,true,false,false,false
|false,false,false,false,true,false,false,false,false,false,false,false,false,false,false,false,false,true
|false,false,false,false,true,false,false,false,false,false,false,false,false,true,false,false,false,false
|false,false,false,false,false,false,false,false,false,false,false,false,false,false,true,true,false,false
|false,false,false,false,false,false,false,false,true,false,false,false,false,false,false,true,false,false
|false,false,false,false,false,false,false,false,true,false,false,false,true,false,false,false,false,false
|false,false,false,false,false,false,false,false,false,false,false,false,false,false,false,false,true,true
|true,false,false,false,false,false,false,false,false,false,false,false,false,false,false,false,false,true
|true,false,false,false,false,false,false,false,false,false,false,false,false,false,false,true,false,false
|false,false,false,false,false,false,false,true,false,false,false,false,false,false,false,false,true,false
|];
terminals = {1,2,3,4,5,6,7,8,9,10,18};
ws = [795123,953409,297321,203958,431598,16410,171265,152135,1238,565589,532654,51036,95964,7732,224157,20419,261019,349184,102679,261759];
cs = [9,11,10,3,11,9,5,9,4,9,9,3,11,4,7,7,7,7,6,10];
ds = [0,1,2,2,2,1,3,2,3,1,3,0,0,0,0,0,0,0];
